1807 3135
3030 2536
1858 3504
2961 3351
812 514
3004 2569
1676 2949
475 759
3543 3469
2290 3452
1022 860
2858 2076
3000 3029
2770 1363
2254 482
2647 340
614 315
2023 825
2124 131
2016 580
1844 3247
2380 1027
280 2972
2608 270
1405 3353
1513 963
3315 2227
1417 1368
2769 2680
3491 298
419 1107
2880 576
3271 1425
2668 1177
899 248
514 1858
1803 1406
2533 2365
1952 3435
1563 3382
351 2874
2738 2612
944 780
1298 2840
654 530
3434 156
3301 646
110 2224
1342 1095
128 1062
